jobs  (incl. supersource/sink ):	102
RESOURCES
- renewable                 : 4 R
- nonrenewable              : 2 N
- doubly constrained        : 0 D
************************************************************************
PRECEDENCE RELATIONS:
jobnr.    #modes  #successors   successors
1	1	29		2 3 5 6 7 8 9 10 11 12 13 15 16 17 18 19 20 21 22 24 26 27 29 31 34 35 38 41 49 
2	6	8		96 57 43 40 37 36 30 4 
3	6	20		100 70 68 67 64 63 62 61 58 52 51 48 46 45 44 43 40 36 25 23 
4	6	13		100 98 91 71 63 55 48 47 46 45 44 39 14 
5	6	18		101 97 92 91 71 69 68 63 61 60 54 52 51 50 47 44 39 28 
6	6	17		100 99 97 95 92 89 80 70 67 66 63 61 60 59 57 55 23 
7	6	21		98 97 95 94 92 91 88 87 70 68 64 61 55 54 51 50 47 45 43 42 40 
8	6	18		101 100 99 97 95 93 92 91 68 66 65 63 60 52 46 44 40 28 
9	6	16		99 96 95 90 81 70 69 65 63 60 56 55 54 53 50 33 
10	6	22		100 97 96 95 94 92 91 87 86 79 70 68 67 64 62 61 60 59 52 45 44 43 
11	6	12		100 99 94 93 90 68 67 64 47 40 36 25 
12	6	19		100 99 96 95 93 91 88 87 64 63 61 59 56 54 50 47 44 43 40 
13	6	15		99 97 95 91 86 71 67 66 60 57 52 50 47 44 28 
14	6	22		101 99 95 93 92 90 89 87 86 84 83 82 69 68 67 66 61 60 59 53 52 50 
15	6	14		99 97 94 92 91 90 87 53 52 47 44 43 42 40 
16	6	20		100 99 97 96 95 94 93 92 91 88 87 85 83 70 69 68 62 58 44 40 
17	6	17		98 97 94 92 91 87 86 71 69 66 61 59 56 52 50 45 44 
18	6	10		98 96 95 94 93 92 91 67 65 32 
19	6	16		99 97 94 93 90 88 85 81 77 76 68 67 66 62 56 36 
20	6	14		99 97 95 93 90 88 85 76 72 66 61 59 54 36 
21	6	13		99 98 96 94 93 86 68 64 59 53 45 44 43 
22	6	14		93 91 90 83 82 69 68 66 63 61 60 59 52 46 
23	6	14		98 94 91 90 87 86 84 82 81 75 69 53 50 42 
24	6	18		101 99 97 90 89 88 87 86 83 82 81 80 78 74 72 66 65 50 
25	6	17		97 96 95 92 91 88 87 84 83 82 80 77 74 72 66 59 50 
26	6	17		98 97 95 94 92 91 89 87 86 84 82 81 74 68 67 66 50 
27	6	12		94 88 87 86 84 82 81 77 72 60 50 45 
28	6	19		98 96 90 89 88 87 85 84 83 82 80 79 77 76 75 74 73 72 59 
29	6	12		95 91 90 88 87 85 83 79 77 66 62 40 
30	6	14		99 98 89 86 85 82 81 79 76 73 67 65 62 60 
31	6	13		92 91 88 86 82 80 79 76 73 69 65 62 59 
32	6	11		89 88 87 86 82 79 72 69 66 59 45 
33	6	15		98 93 92 91 87 85 83 79 78 76 74 73 68 67 66 
34	6	15		101 97 96 95 88 87 86 81 79 78 76 74 73 67 66 
35	6	12		95 92 91 86 85 80 78 77 76 74 64 62 
36	6	11		92 89 87 86 84 83 80 79 75 73 60 
37	6	12		97 93 92 91 84 82 80 79 77 76 73 72 
38	6	10		95 92 88 86 85 83 82 74 73 72 
39	6	8		93 87 82 77 76 73 67 66 
40	6	8		86 81 80 78 76 75 74 73 
41	6	7		93 85 83 79 77 72 69 
42	6	7		96 93 85 83 78 73 72 
43	6	6		84 83 82 74 73 66 
44	6	6		89 82 81 77 73 72 
45	6	6		90 83 80 76 75 73 
46	6	6		87 85 84 80 76 73 
47	6	5		89 83 82 77 72 
48	6	5		89 85 75 74 72 
49	6	5		96 79 77 74 72 
50	6	4		85 79 76 73 
51	6	3		89 72 66 
52	6	3		88 85 81 
53	6	3		88 79 77 
54	6	3		86 83 82 
55	6	3		93 84 77 
56	6	3		89 78 73 
57	6	3		79 73 72 
58	6	3		82 80 76 
59	6	2		81 78 
60	6	2		78 74 
61	6	2		78 77 
62	6	2		75 72 
63	6	2		94 72 
64	6	2		84 81 
65	6	2		84 77 
66	6	1		75 
67	6	1		72 
68	6	1		80 
69	6	1		74 
70	6	1		84 
71	6	1		72 
72	6	1		102 
73	6	1		102 
74	6	1		102 
75	6	1		102 
76	6	1		102 
77	6	1		102 
78	6	1		102 
79	6	1		102 
80	6	1		102 
81	6	1		102 
82	6	1		102 
83	6	1		102 
84	6	1		102 
85	6	1		102 
86	6	1		102 
87	6	1		102 
88	6	1		102 
89	6	1		102 
90	6	1		102 
91	6	1		102 
92	6	1		102 
93	6	1		102 
94	6	1		102 
95	6	1		102 
96	6	1		102 
97	6	1		102 
98	6	1		102 
99	6	1		102 
100	6	1		102 
101	6	1		102 
102	1	0		
************************************************************************
REQUESTS/DURATIONS
jobnr.	mode	dur	R1	R2	R3	R4	N1	N2	
------------------------------------------------------------------------
1	1	0	0	0	0	0	0	0	
2	1	8	3	4	1	4	15	25	
	2	16	3	4	1	3	15	23	
	3	17	3	3	1	3	15	23	
	4	18	2	3	1	2	15	19	
	5	24	2	2	1	2	15	19	
	6	27	2	1	1	1	15	17	
3	1	3	1	5	4	3	27	21	
	2	12	1	4	4	3	27	17	
	3	16	1	4	4	3	25	15	
	4	22	1	4	3	3	24	14	
	5	23	1	4	2	3	21	11	
	6	27	1	4	2	3	20	9	
4	1	6	2	3	5	3	27	12	
	2	14	2	2	5	3	26	11	
	3	18	2	2	5	2	26	9	
	4	19	2	2	5	2	26	6	
	5	20	2	2	5	2	25	5	
	6	21	2	2	5	1	25	2	
5	1	3	5	1	5	1	24	14	
	2	4	3	1	3	1	23	13	
	3	16	3	1	3	1	19	11	
	4	17	3	1	2	1	18	9	
	5	22	1	1	2	1	14	6	
	6	26	1	1	1	1	10	5	
6	1	10	3	5	3	4	10	24	
	2	12	3	4	3	3	9	23	
	3	18	3	4	3	3	9	19	
	4	21	2	4	3	3	9	18	
	5	24	2	4	3	3	9	16	
	6	30	1	4	3	3	9	14	
7	1	3	5	1	5	4	23	10	
	2	13	4	1	4	4	21	9	
	3	21	4	1	4	4	19	8	
	4	23	4	1	4	4	12	7	
	5	25	4	1	4	4	12	5	
	6	27	4	1	4	4	6	4	
8	1	4	1	3	2	4	30	13	
	2	8	1	3	2	4	28	12	
	3	9	1	3	2	4	26	11	
	4	10	1	3	2	4	23	10	
	5	26	1	3	2	4	20	10	
	6	28	1	3	2	4	19	9	
9	1	3	1	5	5	4	20	25	
	2	4	1	4	4	4	14	22	
	3	7	1	4	3	3	13	20	
	4	8	1	3	3	2	9	18	
	5	15	1	3	2	1	7	15	
	6	30	1	2	2	1	5	9	
10	1	2	4	4	4	4	27	28	
	2	7	4	4	3	4	25	27	
	3	8	3	4	3	4	24	27	
	4	10	3	4	3	4	24	26	
	5	22	1	4	3	4	21	25	
	6	29	1	4	3	4	20	25	
11	1	3	3	4	2	2	8	28	
	2	9	3	4	2	2	7	28	
	3	15	3	4	2	2	6	28	
	4	20	3	4	2	2	6	27	
	5	22	3	4	2	2	5	28	
	6	29	3	4	2	2	5	27	
12	1	9	4	5	4	3	8	13	
	2	10	3	4	3	2	7	11	
	3	11	3	4	3	2	7	10	
	4	13	2	4	3	2	5	9	
	5	15	2	4	2	1	4	8	
	6	17	2	4	2	1	4	6	
13	1	3	1	4	5	4	20	17	
	2	5	1	3	4	4	20	16	
	3	16	1	2	4	4	19	15	
	4	17	1	2	4	4	18	13	
	5	21	1	1	4	3	17	13	
	6	22	1	1	4	3	17	12	
14	1	5	3	2	5	5	22	26	
	2	11	3	2	4	4	21	25	
	3	15	3	2	4	4	19	23	
	4	19	2	2	3	3	19	22	
	5	20	2	2	3	2	16	22	
	6	30	2	2	3	2	16	21	
15	1	10	4	5	3	4	28	23	
	2	11	3	4	3	4	26	23	
	3	15	3	4	3	3	24	22	
	4	16	3	4	3	3	22	21	
	5	17	3	3	3	3	20	19	
	6	26	3	3	3	2	20	19	
16	1	2	2	3	4	5	24	23	
	2	9	2	3	4	4	23	22	
	3	11	2	3	4	4	23	21	
	4	14	2	2	4	4	22	22	
	5	17	2	1	4	4	22	21	
	6	20	2	1	4	4	22	20	
17	1	1	2	5	5	5	22	13	
	2	5	1	3	4	4	21	10	
	3	7	1	3	4	4	15	9	
	4	14	1	3	4	4	14	9	
	5	25	1	1	3	3	10	7	
	6	27	1	1	3	3	8	6	
18	1	8	4	5	3	4	12	28	
	2	17	4	4	2	4	10	28	
	3	20	4	4	2	3	10	28	
	4	21	4	4	1	3	9	28	
	5	26	3	4	1	2	7	28	
	6	27	3	4	1	2	7	27	
19	1	2	3	4	3	2	25	15	
	2	5	3	4	2	2	21	15	
	3	13	3	3	2	2	21	14	
	4	19	3	3	1	2	16	12	
	5	20	3	2	1	2	14	11	
	6	22	3	2	1	2	11	10	
20	1	5	1	2	4	2	20	2	
	2	6	1	2	3	2	18	2	
	3	9	1	2	3	2	15	2	
	4	11	1	2	2	2	14	2	
	5	12	1	1	2	1	12	2	
	6	18	1	1	2	1	11	2	
21	1	8	3	4	3	5	20	16	
	2	10	3	4	3	5	19	14	
	3	19	3	3	3	5	17	13	
	4	24	2	3	2	5	14	13	
	5	28	2	2	2	5	12	12	
	6	30	2	2	2	5	12	11	
22	1	5	3	3	4	4	24	29	
	2	12	2	3	4	3	20	27	
	3	20	2	3	4	3	18	26	
	4	26	2	3	4	2	14	26	
	5	28	2	2	4	2	9	24	
	6	30	2	2	4	2	6	24	
23	1	5	3	3	4	4	25	23	
	2	8	2	3	3	4	25	22	
	3	16	2	3	2	3	24	20	
	4	22	1	3	2	3	22	17	
	5	23	1	3	2	2	21	15	
	6	30	1	3	1	1	20	14	
24	1	1	4	5	4	4	8	19	
	2	5	3	4	4	4	7	18	
	3	18	3	3	4	4	7	18	
	4	23	2	2	3	3	6	16	
	5	28	1	1	3	3	5	16	
	6	30	1	1	3	3	5	14	
25	1	1	3	1	5	3	23	8	
	2	11	2	1	4	3	21	8	
	3	14	2	1	3	2	20	8	
	4	16	1	1	3	2	20	8	
	5	19	1	1	2	1	19	8	
	6	30	1	1	2	1	18	8	
26	1	1	4	5	3	4	14	10	
	2	4	3	4	3	4	14	9	
	3	6	2	4	3	4	14	8	
	4	10	2	3	2	4	14	7	
	5	13	2	3	2	4	14	6	
	6	18	1	2	2	4	14	5	
27	1	8	5	3	2	1	2	19	
	2	13	4	2	2	1	1	16	
	3	16	4	2	2	1	1	13	
	4	18	3	1	1	1	1	10	
	5	21	3	1	1	1	1	9	
	6	25	3	1	1	1	1	7	
28	1	6	3	5	4	4	23	18	
	2	7	2	4	3	3	19	16	
	3	8	2	4	3	3	17	14	
	4	11	2	3	3	3	13	8	
	5	15	1	3	3	3	8	7	
	6	22	1	3	3	3	8	4	
29	1	1	4	2	3	3	10	21	
	2	4	3	1	3	3	10	19	
	3	9	3	1	3	3	10	18	
	4	15	2	1	3	2	10	16	
	5	20	1	1	2	2	10	15	
	6	25	1	1	2	2	10	14	
30	1	6	5	2	2	4	26	24	
	2	11	5	2	2	3	24	24	
	3	17	5	2	2	3	24	20	
	4	18	5	2	2	2	23	20	
	5	19	5	2	2	2	20	17	
	6	28	5	2	2	1	20	14	
31	1	1	4	5	4	2	11	12	
	2	11	4	4	4	2	11	12	
	3	12	4	4	3	2	11	9	
	4	13	4	3	3	2	11	8	
	5	17	4	2	2	2	11	6	
	6	20	4	2	2	2	11	5	
32	1	11	2	4	3	5	2	21	
	2	15	2	4	3	4	2	20	
	3	16	2	4	3	3	2	18	
	4	24	2	4	3	3	2	16	
	5	26	2	4	3	2	1	12	
	6	30	2	4	3	1	1	12	
33	1	2	5	4	1	3	9	15	
	2	3	5	3	1	2	9	14	
	3	4	5	3	1	2	9	12	
	4	16	5	3	1	2	9	10	
	5	18	5	3	1	2	9	8	
	6	29	5	3	1	2	9	5	
34	1	3	4	2	3	4	27	19	
	2	11	4	1	3	3	26	14	
	3	12	4	1	3	3	23	13	
	4	13	4	1	3	2	20	12	
	5	16	4	1	3	1	18	10	
	6	27	4	1	3	1	17	8	
35	1	10	4	4	4	4	22	15	
	2	11	4	4	3	4	17	14	
	3	14	4	4	3	4	17	13	
	4	15	3	4	2	3	14	13	
	5	29	3	4	1	3	9	13	
	6	30	3	4	1	3	9	12	
36	1	15	3	2	3	3	19	18	
	2	19	2	2	2	3	19	16	
	3	27	2	2	2	3	16	12	
	4	28	2	2	1	2	10	9	
	5	29	2	2	1	2	9	8	
	6	30	2	2	1	1	5	5	
37	1	3	3	3	1	4	16	24	
	2	12	2	3	1	4	16	23	
	3	19	2	3	1	4	13	22	
	4	20	1	3	1	4	9	22	
	5	26	1	3	1	4	5	22	
	6	27	1	3	1	4	5	21	
38	1	2	3	2	4	4	9	26	
	2	8	2	2	4	3	9	20	
	3	17	2	2	4	3	7	18	
	4	24	1	2	3	3	7	15	
	5	29	1	2	3	3	5	14	
	6	30	1	2	3	3	5	11	
39	1	1	5	5	5	5	13	21	
	2	2	4	4	4	5	11	21	
	3	5	3	3	4	5	7	21	
	4	8	2	3	3	5	6	21	
	5	12	1	2	3	5	4	21	
	6	25	1	2	2	5	3	21	
40	1	5	4	2	4	5	10	17	
	2	8	3	1	3	3	10	14	
	3	16	3	1	3	3	9	12	
	4	18	2	1	3	2	9	10	
	5	25	2	1	3	2	9	8	
	6	29	2	1	3	1	8	5	
41	1	1	3	3	4	5	19	27	
	2	5	2	3	3	5	16	25	
	3	16	2	3	3	5	16	24	
	4	19	2	2	2	5	9	21	
	5	26	2	2	1	5	6	20	
	6	28	2	1	1	5	3	19	
42	1	2	4	5	5	5	19	21	
	2	8	3	4	4	4	17	19	
	3	14	3	4	3	4	16	14	
	4	16	2	3	3	3	14	11	
	5	19	2	3	2	3	13	7	
	6	24	2	2	2	3	12	1	
43	1	2	2	3	3	1	27	23	
	2	4	1	3	3	1	25	23	
	3	13	1	3	3	1	24	21	
	4	14	1	3	2	1	19	18	
	5	15	1	3	2	1	17	16	
	6	27	1	3	1	1	14	13	
44	1	1	4	3	3	3	23	10	
	2	2	4	2	2	3	20	9	
	3	5	4	2	2	3	16	8	
	4	14	4	2	2	3	14	6	
	5	18	4	2	1	3	9	4	
	6	24	4	2	1	3	4	3	
45	1	4	5	5	5	4	15	9	
	2	5	5	4	4	4	15	6	
	3	6	5	4	4	4	11	6	
	4	17	5	4	4	4	9	5	
	5	20	5	4	4	4	7	3	
	6	23	5	4	4	4	7	1	
46	1	5	4	5	3	3	24	26	
	2	12	4	3	2	3	22	22	
	3	14	4	3	2	3	18	21	
	4	15	4	3	2	3	14	20	
	5	16	4	1	2	3	10	18	
	6	20	4	1	2	3	6	15	
47	1	11	5	3	4	3	16	6	
	2	15	4	3	3	3	16	5	
	3	17	3	3	3	3	13	5	
	4	18	3	2	2	3	13	4	
	5	29	2	2	2	3	11	3	
	6	30	2	2	1	3	9	2	
48	1	4	4	5	4	2	26	19	
	2	8	4	5	3	2	24	18	
	3	9	4	5	3	2	21	18	
	4	10	4	5	2	2	14	17	
	5	14	3	5	2	2	11	17	
	6	15	3	5	2	2	7	17	
49	1	7	4	5	1	3	3	27	
	2	16	3	5	1	3	2	21	
	3	20	3	5	1	3	2	16	
	4	21	3	5	1	3	2	15	
	5	25	3	5	1	3	1	8	
	6	26	3	5	1	3	1	6	
50	1	6	2	3	4	4	15	7	
	2	7	2	2	3	4	15	6	
	3	9	2	2	3	3	15	4	
	4	15	2	2	2	3	15	4	
	5	22	1	2	1	2	15	2	
	6	23	1	2	1	2	15	1	
51	1	4	2	4	4	3	22	27	
	2	13	1	4	4	3	19	26	
	3	19	1	3	3	3	19	24	
	4	22	1	3	3	3	16	24	
	5	26	1	3	2	2	15	23	
	6	30	1	2	1	2	14	21	
52	1	3	3	5	1	4	21	29	
	2	8	2	4	1	4	19	27	
	3	14	2	3	1	4	13	26	
	4	17	2	3	1	4	13	25	
	5	18	2	2	1	3	7	24	
	6	19	2	2	1	3	4	24	
53	1	2	3	3	1	5	16	11	
	2	10	3	3	1	4	15	8	
	3	14	3	3	1	4	15	7	
	4	15	3	3	1	3	14	5	
	5	18	3	3	1	3	14	4	
	6	19	3	3	1	3	14	1	
54	1	4	3	5	4	3	24	23	
	2	9	3	4	3	2	21	22	
	3	11	2	3	3	2	21	22	
	4	18	2	3	2	2	18	22	
	5	28	1	3	1	2	16	20	
	6	30	1	2	1	2	14	20	
55	1	11	4	3	1	1	6	30	
	2	13	4	3	1	1	6	27	
	3	19	4	3	1	1	4	27	
	4	23	4	3	1	1	3	25	
	5	28	4	2	1	1	2	24	
	6	29	4	2	1	1	1	24	
56	1	8	4	4	3	2	26	4	
	2	15	4	4	3	2	26	3	
	3	20	4	4	3	2	26	2	
	4	23	4	3	2	2	25	4	
	5	24	3	2	1	2	25	4	
	6	29	3	2	1	2	24	4	
57	1	7	1	5	4	4	25	21	
	2	9	1	4	3	4	24	19	
	3	10	1	4	3	4	23	17	
	4	13	1	4	3	4	22	16	
	5	24	1	4	2	3	19	16	
	6	26	1	4	2	3	18	14	
58	1	2	3	3	4	3	26	7	
	2	3	3	3	4	2	19	6	
	3	5	3	3	3	2	18	6	
	4	10	3	3	3	2	15	4	
	5	23	3	3	3	1	9	4	
	6	26	3	3	2	1	9	3	
59	1	1	2	1	4	5	13	20	
	2	3	2	1	3	4	12	18	
	3	4	2	1	3	4	12	16	
	4	8	2	1	3	4	11	15	
	5	23	2	1	2	3	10	15	
	6	26	2	1	1	3	10	13	
60	1	1	4	4	1	4	27	26	
	2	6	4	3	1	4	27	26	
	3	8	4	3	1	4	27	25	
	4	16	4	3	1	4	27	24	
	5	19	4	3	1	4	27	23	
	6	24	4	3	1	4	27	22	
61	1	3	3	2	2	5	29	12	
	2	6	3	1	2	3	28	11	
	3	8	3	1	2	3	28	10	
	4	21	3	1	2	3	27	10	
	5	23	3	1	2	2	27	10	
	6	25	3	1	2	1	27	10	
62	1	1	5	4	4	3	15	27	
	2	5	4	4	3	3	15	23	
	3	7	4	4	3	3	13	18	
	4	12	4	4	2	2	12	15	
	5	13	4	4	1	2	8	13	
	6	27	4	4	1	2	8	10	
63	1	5	4	4	3	3	22	22	
	2	6	4	3	3	3	20	19	
	3	8	3	3	3	3	20	16	
	4	23	3	2	3	2	19	16	
	5	25	2	2	3	2	16	14	
	6	29	1	2	3	1	15	11	
64	1	4	4	4	2	1	22	22	
	2	10	4	4	1	1	18	22	
	3	16	4	4	1	1	17	22	
	4	17	4	3	1	1	16	22	
	5	27	4	3	1	1	14	22	
	6	28	4	3	1	1	11	22	
65	1	3	4	4	5	4	10	10	
	2	4	3	3	5	4	9	10	
	3	7	2	3	5	4	9	10	
	4	12	2	2	5	3	7	10	
	5	24	2	2	5	3	6	10	
	6	26	1	1	5	3	6	10	
66	1	1	2	5	2	4	26	21	
	2	11	2	4	1	4	21	18	
	3	16	2	3	1	4	17	16	
	4	20	2	3	1	3	17	16	
	5	22	2	3	1	3	12	13	
	6	27	2	2	1	3	8	10	
67	1	2	3	3	3	2	24	18	
	2	17	3	3	3	2	18	17	
	3	21	3	3	3	2	15	14	
	4	22	2	3	3	2	15	14	
	5	23	1	3	3	2	9	12	
	6	26	1	3	3	2	6	8	
68	1	2	3	4	4	3	26	25	
	2	11	2	3	4	3	26	20	
	3	12	2	3	4	3	26	17	
	4	13	1	3	4	3	26	17	
	5	16	1	3	4	3	26	12	
	6	21	1	3	4	3	26	11	
69	1	5	4	5	4	4	15	8	
	2	8	3	4	4	3	12	7	
	3	9	3	4	4	3	9	7	
	4	18	3	4	3	3	7	7	
	5	27	1	3	3	3	6	7	
	6	30	1	3	2	3	4	7	
70	1	11	5	3	1	4	21	10	
	2	12	3	2	1	4	21	9	
	3	13	3	2	1	4	20	8	
	4	16	2	2	1	4	19	7	
	5	21	2	2	1	4	18	7	
	6	23	1	2	1	4	18	6	
71	1	7	3	1	4	5	29	21	
	2	16	3	1	3	3	26	19	
	3	20	2	1	3	3	26	13	
	4	23	2	1	2	3	24	11	
	5	24	2	1	2	1	23	7	
	6	25	1	1	2	1	21	6	
72	1	2	3	1	4	5	28	6	
	2	11	3	1	3	4	28	6	
	3	16	3	1	3	4	27	6	
	4	17	3	1	3	3	25	6	
	5	22	3	1	3	3	25	5	
	6	24	3	1	3	2	24	6	
73	1	2	1	3	2	5	16	29	
	2	10	1	3	1	4	11	22	
	3	11	1	3	1	4	9	16	
	4	15	1	3	1	4	6	13	
	5	20	1	3	1	4	5	11	
	6	30	1	3	1	4	1	6	
74	1	1	3	5	4	3	27	22	
	2	6	3	5	3	3	21	20	
	3	8	3	5	3	2	20	17	
	4	17	3	5	3	2	15	13	
	5	21	3	5	2	1	13	11	
	6	25	3	5	2	1	9	8	
75	1	2	4	2	3	5	29	26	
	2	7	3	2	3	4	25	24	
	3	20	2	2	3	4	21	21	
	4	27	2	2	3	4	20	15	
	5	28	2	1	3	4	16	13	
	6	29	1	1	3	4	15	9	
76	1	2	1	5	4	5	14	20	
	2	17	1	4	4	4	11	20	
	3	22	1	3	4	4	9	18	
	4	24	1	2	3	3	5	17	
	5	26	1	2	3	2	4	15	
	6	29	1	1	3	2	3	14	
77	1	1	2	5	4	4	14	9	
	2	7	2	4	3	3	13	8	
	3	10	2	4	2	3	13	8	
	4	11	2	3	2	3	12	7	
	5	12	2	3	2	1	11	6	
	6	14	2	3	1	1	11	4	
78	1	3	3	5	4	5	20	21	
	2	13	3	4	4	5	19	19	
	3	16	3	4	3	5	19	16	
	4	19	3	4	3	5	18	11	
	5	23	3	3	1	5	16	9	
	6	24	3	3	1	5	16	7	
79	1	11	1	3	3	5	21	26	
	2	18	1	3	2	4	19	24	
	3	23	1	3	2	3	18	23	
	4	24	1	3	2	3	17	22	
	5	25	1	3	1	2	15	22	
	6	27	1	3	1	2	15	21	
80	1	5	4	3	3	4	22	13	
	2	12	3	2	3	4	18	13	
	3	14	3	2	3	4	15	13	
	4	16	2	1	3	4	15	12	
	5	17	2	1	3	4	9	12	
	6	23	2	1	3	4	8	12	
81	1	7	2	4	4	3	20	17	
	2	8	2	4	3	3	20	15	
	3	9	2	4	3	3	18	15	
	4	13	2	4	2	3	14	15	
	5	21	2	4	1	3	12	13	
	6	27	2	4	1	3	12	12	
82	1	3	4	4	3	3	24	25	
	2	14	4	4	3	2	24	21	
	3	20	4	4	3	2	18	16	
	4	25	4	4	2	1	14	13	
	5	27	4	4	2	1	8	10	
	6	29	4	4	2	1	4	7	
83	1	1	5	3	4	3	17	26	
	2	5	4	3	4	2	16	22	
	3	7	4	3	4	2	13	18	
	4	10	3	3	4	2	11	15	
	5	22	3	3	4	2	8	11	
	6	27	2	3	4	2	8	10	
84	1	8	4	4	4	2	18	8	
	2	9	4	4	4	2	16	8	
	3	10	4	4	4	2	14	6	
	4	16	4	3	4	2	14	6	
	5	19	4	3	4	2	13	4	
	6	25	4	2	4	2	10	4	
85	1	3	3	4	5	2	4	25	
	2	9	3	3	4	2	4	19	
	3	15	3	3	4	2	4	18	
	4	23	3	3	4	2	4	16	
	5	24	3	2	4	2	4	10	
	6	28	3	1	4	2	4	10	
86	1	5	1	2	5	5	11	21	
	2	8	1	2	4	4	10	19	
	3	10	1	2	4	4	10	15	
	4	23	1	2	4	3	8	12	
	5	27	1	1	4	3	7	7	
	6	29	1	1	4	3	5	4	
87	1	10	5	4	1	5	22	15	
	2	19	3	3	1	4	20	15	
	3	23	3	3	1	4	19	13	
	4	25	2	2	1	3	17	10	
	5	26	2	2	1	3	15	8	
	6	27	1	1	1	3	12	4	
88	1	5	4	5	1	4	27	22	
	2	7	3	5	1	3	25	21	
	3	19	2	5	1	3	24	20	
	4	20	2	5	1	3	23	20	
	5	22	2	5	1	2	21	18	
	6	26	1	5	1	2	19	18	
89	1	4	5	5	3	3	16	29	
	2	11	4	4	2	2	15	23	
	3	16	3	4	2	2	15	19	
	4	17	3	4	2	2	15	16	
	5	24	2	4	1	2	15	12	
	6	25	1	4	1	2	15	11	
90	1	4	5	4	5	3	18	27	
	2	5	5	4	4	2	18	23	
	3	6	5	3	3	2	14	20	
	4	21	5	3	3	2	12	17	
	5	22	5	3	2	2	11	15	
	6	24	5	2	2	2	9	13	
91	1	4	5	3	4	1	26	24	
	2	7	5	2	4	1	24	23	
	3	17	5	2	3	1	23	22	
	4	22	5	2	3	1	22	22	
	5	23	5	2	1	1	19	22	
	6	28	5	2	1	1	16	21	
92	1	2	4	1	4	5	19	22	
	2	3	4	1	3	4	18	22	
	3	11	4	1	3	4	15	21	
	4	12	4	1	2	4	12	20	
	5	27	4	1	1	3	8	20	
	6	30	4	1	1	3	4	19	
93	1	7	3	4	5	2	18	15	
	2	8	3	3	4	2	14	14	
	3	13	3	3	3	2	10	9	
	4	14	3	3	3	2	10	7	
	5	17	3	3	2	1	5	5	
	6	27	3	3	1	1	4	2	
94	1	1	5	2	3	4	21	19	
	2	2	4	2	3	3	20	17	
	3	10	4	2	3	3	18	12	
	4	15	4	1	3	2	18	8	
	5	19	3	1	3	1	15	5	
	6	27	3	1	3	1	14	1	
95	1	5	4	4	4	3	19	26	
	2	8	4	3	3	3	17	25	
	3	15	4	3	2	3	12	21	
	4	21	3	3	2	3	8	19	
	5	25	3	3	1	3	8	17	
	6	29	3	3	1	3	2	15	
96	1	10	5	4	4	5	17	24	
	2	11	3	3	4	5	15	22	
	3	12	3	3	4	5	14	22	
	4	16	2	3	4	5	13	20	
	5	17	1	2	4	5	12	19	
	6	25	1	1	4	5	12	17	
97	1	5	2	1	5	4	17	26	
	2	12	1	1	4	4	16	24	
	3	19	1	1	4	4	12	19	
	4	22	1	1	4	4	10	12	
	5	25	1	1	4	4	5	11	
	6	28	1	1	4	4	2	3	
98	1	7	1	2	2	4	21	19	
	2	11	1	2	2	4	17	15	
	3	14	1	2	2	3	17	13	
	4	16	1	1	1	3	14	10	
	5	17	1	1	1	2	10	7	
	6	28	1	1	1	2	8	6	
99	1	1	5	3	3	3	22	25	
	2	4	4	2	2	3	22	25	
	3	8	4	2	2	3	18	25	
	4	10	4	1	1	3	10	24	
	5	17	3	1	1	2	9	24	
	6	25	3	1	1	2	4	23	
100	1	4	1	1	1	1	25	15	
	2	9	1	1	1	1	22	13	
	3	12	1	1	1	1	18	12	
	4	21	1	1	1	1	17	12	
	5	25	1	1	1	1	14	10	
	6	30	1	1	1	1	14	8	
101	1	6	4	5	5	5	21	20	
	2	9	3	5	4	3	20	14	
	3	14	3	5	4	3	19	11	
	4	20	2	5	4	2	19	10	
	5	25	2	5	4	2	18	5	
	6	30	1	5	4	1	18	3	
102	1	0	0	0	0	0	0	0	
************************************************************************

 RESOURCE AVAILABILITIES 
	R 1	R 2	R 3	R 4	N 1	N 2
	48	56	53	53	1306	1311

************************************************************************
